p cnf 85 69
-1 65 -66 -68 -69 -70 -71 -72 -73 -75 -79 -81 -82 -83 -84 -85 0 
-2 10 15 23 31 37 -3 66 -68 -69 -70 -71 -72 -73 -75 -79 -81 -82 -83 -84 -85 0 
-2 10 15 23 31 37 -4 66 -68 -69 -70 -71 -72 -73 -75 -79 -81 -82 -83 -84 -85 0 
-2 10 15 23 31 37 -5 66 -68 -69 -70 -71 -72 -73 -75 -79 -81 -82 -83 -84 -85 0 
-2 10 15 23 31 37 -6 66 -68 -69 -70 -71 -72 -73 -75 -79 -81 -82 -83 -84 -85 0 
-7 27 30 67 -66 -68 -69 -70 -71 -72 -73 -75 -79 -81 -82 -83 -84 -85 0 
-8 33 67 -66 -68 -69 -70 -71 -72 -73 -75 -79 -81 -82 -83 -84 -85 0 
-9 67 -66 -68 -69 -70 -71 -72 -73 -75 -79 -81 -82 -83 -84 -85 0 
-10 2 15 23 31 37 68 -66 -69 -70 -71 -72 -73 -75 -79 -81 -82 -83 -84 -85 0 
-2 10 15 23 31 37 66 -68 -69 -70 -71 -72 -73 -75 -79 -81 -82 -83 -84 -85 0 
-11 69 -66 -68 -70 -71 -72 -73 -75 -79 -81 -82 -83 -84 -85 0 
-12 13 70 -66 -68 -69 -71 -72 -73 -75 -79 -81 -82 -83 -84 -85 0 
-13 12 -12 13 69 -66 -68 -70 -71 -72 -73 -75 -79 -81 -82 -83 -84 -85 0 
-14 45 47 54 60 65 -66 -68 -69 -70 -71 -72 -73 -75 -79 -81 -82 -83 -84 -85 0 
-15 2 10 23 31 37 65 -66 -68 -69 -70 -71 -72 -73 -75 -79 -81 -82 -83 -84 -85 0 
-16 46 48 65 -66 -68 -69 -70 -71 -72 -73 -75 -79 -81 -82 -83 -84 -85 0 
-17 29 50 -18 -12 13 65 -66 -68 -69 -70 -71 -72 -73 -75 -79 -81 -82 -83 -84 -85 0 
-19 51 -12 13 71 -66 -68 -69 -70 -72 -73 -75 -79 -81 -82 -83 -84 -85 0 
-12 13 65 -66 -68 -69 -70 -71 -72 -73 -75 -79 -81 -82 -83 -84 -85 0 
-18 -20 72 -66 -68 -69 -70 -71 -73 -75 -79 -81 -82 -83 -84 -85 0 
-21 28 62 73 -66 -68 -69 -70 -71 -72 -75 -79 -81 -82 -83 -84 -85 0 
-22 32 36 42 53 59 65 -66 -68 -69 -70 -71 -72 -73 -75 -79 -81 -82 -83 -84 -85 0 
-23 2 10 15 31 37 -24 74 -66 -68 -69 -70 -71 -72 -73 -75 -79 -81 -82 -83 -84 -85 0 
-25 55 74 -66 -68 -69 -70 -71 -72 -73 -75 -79 -81 -82 -83 -84 -85 0 
-26 72 -66 -68 -69 -70 -71 -73 -75 -79 -81 -82 -83 -84 -85 0 
-27 7 30 75 -66 -68 -69 -70 -71 -72 -73 -79 -81 -82 -83 -84 -85 0 
-28 21 62 76 -66 -68 -69 -70 -71 -72 -73 -75 -79 -81 -82 -83 -84 -85 0 
-29 17 50 75 -66 -68 -69 -70 -71 -72 -73 -79 -81 -82 -83 -84 -85 0 
-30 7 27 72 -66 -68 -69 -70 -71 -73 -75 -79 -81 -82 -83 -84 -85 0 
-31 2 10 15 23 37 65 -66 -68 -69 -70 -71 -72 -73 -75 -79 -81 -82 -83 -84 -85 0 
-32 22 36 42 53 59 65 -66 -68 -69 -70 -71 -72 -73 -75 -79 -81 -82 -83 -84 -85 0 
-33 8 74 -66 -68 -69 -70 -71 -72 -73 -75 -79 -81 -82 -83 -84 -85 0 
-34 38 74 -66 -68 -69 -70 -71 -72 -73 -75 -79 -81 -82 -83 -84 -85 0 
-34 38 77 -66 -68 -69 -70 -71 -72 -73 -75 -79 -81 -82 -83 -84 -85 0 
-25 55 78 -66 -68 -69 -70 -71 -72 -73 -75 -79 -81 -82 -83 -84 -85 0 
-35 74 -66 -68 -69 -70 -71 -72 -73 -75 -79 -81 -82 -83 -84 -85 0 
-25 55 -36 22 32 42 53 59 -37 2 10 15 23 31 77 -66 -68 -69 -70 -71 -72 -73 -75 -79 -81 -82 -83 -84 -85 0 
-38 34 74 -66 -68 -69 -70 -71 -72 -73 -75 -79 -81 -82 -83 -84 -85 0 
-25 55 76 -66 -68 -69 -70 -71 -72 -73 -75 -79 -81 -82 -83 -84 -85 0 
-25 55 -39 -28 21 62 77 -66 -68 -69 -70 -71 -72 -73 -75 -79 -81 -82 -83 -84 -85 0 
-19 51 -40 -12 13 71 -66 -68 -69 -70 -72 -73 -75 -79 -81 -82 -83 -84 -85 0 
-40 -12 13 65 -66 -68 -69 -70 -71 -72 -73 -75 -79 -81 -82 -83 -84 -85 0 
-41 69 -66 -68 -70 -71 -72 -73 -75 -79 -81 -82 -83 -84 -85 0 
-42 22 32 36 53 59 79 -66 -68 -69 -70 -71 -72 -73 -75 -81 -82 -83 -84 -85 0 
-43 79 -66 -68 -69 -70 -71 -72 -73 -75 -81 -82 -83 -84 -85 0 
-44 80 -66 -68 -69 -70 -71 -72 -73 -75 -79 -81 -82 -83 -84 -85 0 
-44 67 -66 -68 -69 -70 -71 -72 -73 -75 -79 -81 -82 -83 -84 -85 0 
-23 2 10 15 31 37 69 -66 -68 -70 -71 -72 -73 -75 -79 -81 -82 -83 -84 -85 0 
-45 14 47 54 60 65 -66 -68 -69 -70 -71 -72 -73 -75 -79 -81 -82 -83 -84 -85 0 
-46 16 48 65 -66 -68 -69 -70 -71 -72 -73 -75 -79 -81 -82 -83 -84 -85 0 
-47 14 45 54 60 79 -66 -68 -69 -70 -71 -72 -73 -75 -81 -82 -83 -84 -85 0 
-48 16 46 81 -66 -68 -69 -70 -71 -72 -73 -75 -79 -82 -83 -84 -85 0 
-49 73 -66 -68 -69 -70 -71 -72 -75 -79 -81 -82 -83 -84 -85 0 
-50 17 29 -51 19 -52 -12 13 82 -66 -68 -69 -70 -71 -72 -73 -75 -79 -81 -83 -84 -85 0 
-53 22 32 36 42 59 83 -66 -68 -69 -70 -71 -72 -73 -75 -79 -81 -82 -84 -85 0 
-54 14 45 47 60 65 -66 -68 -69 -70 -71 -72 -73 -75 -79 -81 -82 -83 -84 -85 0 
-55 25 74 -66 -68 -69 -70 -71 -72 -73 -75 -79 -81 -82 -83 -84 -85 0 
-9 74 -66 -68 -69 -70 -71 -72 -73 -75 -79 -81 -82 -83 -84 -85 0 
-56 -57 -55 25 74 -66 -68 -69 -70 -71 -72 -73 -75 -79 -81 -82 -83 -84 -85 0 
-18 72 -66 -68 -69 -70 -71 -73 -75 -79 -81 -82 -83 -84 -85 0 
-58 65 -66 -68 -69 -70 -71 -72 -73 -75 -79 -81 -82 -83 -84 -85 0 
-19 51 -58 71 -66 -68 -69 -70 -72 -73 -75 -79 -81 -82 -83 -84 -85 0 
-50 17 29 -51 19 -58 82 -66 -68 -69 -70 -71 -72 -73 -75 -79 -81 -83 -84 -85 0 
-59 22 32 36 42 53 65 -66 -68 -69 -70 -71 -72 -73 -75 -79 -81 -82 -83 -84 -85 0 
-60 14 45 47 54 65 -66 -68 -69 -70 -71 -72 -73 -75 -79 -81 -82 -83 -84 -85 0 
-61 84 -66 -68 -69 -70 -71 -72 -73 -75 -79 -81 -82 -83 -85 0 
-61 85 -66 -68 -69 -70 -71 -72 -73 -75 -79 -81 -82 -83 -84 0 
-62 21 28 69 -66 -68 -70 -71 -72 -73 -75 -79 -81 -82 -83 -84 -85 0 
-63 -64 69 -66 -68 -70 -71 -72 -73 -75 -79 -81 -82 -83 -84 -85 0 
